<number of tasks>
50

<cycle time>
1000

<order strength>
0.598


<task times>
1 363
2 473
3 525
4 498
5 661
6 626
7 408
8 737
9 488
10 561
11 612
12 468
13 580
14 635
15 364
16 282
17 492
18 577
19 318
20 447
21 561
22 701
23 732
24 508
25 489
26 402
27 562
28 598
29 526
30 536
31 569
32 551
33 485
34 331
35 504
36 530
37 498
38 699
39 468
40 489
41 526
42 317
43 738
44 711
45 691
46 287
47 660
48 297
49 394
50 531

<precedence relations>
1,13
2,13
3,30
4,30
5,6
5,7
5,8
5,9
5,10
5,11
6,13
7,13
8,13
9,30
10,16
10,22
10,23
11,12
11,13
11,14
12,33
13,15
13,17
13,18
13,19
13,20
14,16
14,21
14,24
15,33
16,33
17,22
17,23
18,24
18,25
18,28
19,23
19,24
20,22
20,25
21,49
22,24
22,26
22,27
22,28
23,25
23,28
24,30
25,29
25,31
25,32
26,30
27,29
27,30
27,32
28,29
28,30
28,31
29,33
30,34
30,35
30,36
30,37
30,38
30,39
31,45
31,47
33,40
33,41
33,42
33,43
33,44
34,44
34,45
35,47
37,44
37,46
39,49
39,50
40,45
40,46
41,47
42,48
42,50
45,48
45,49
45,50
46,47

<end>
